SumColouring/JavaBacktracker/RandomInstances/38_0.20_1.col
c File: instances/38_0.20_1.col
c
c Description: Random graph of size 38 vertices and P(0.2) of edges between any two vertices.
p col 38 703
e 1 27
e 1 30
e 1 31
e 1 33
e 1 34
e 1 35
e 2 18
e 2 24
e 2 30
e 2 31
e 2 36
e 2 38
e 3 6
e 3 7
e 3 16
e 3 19
e 3 20
e 3 23
e 3 27
e 3 31
e 3 33
e 3 34
e 3 36
e 4 7
e 4 14
e 4 17
e 4 24
e 4 29
e 4 33
e 4 34
e 5 9
e 5 12
e 5 19
e 5 22
e 5 24
e 5 28
e 5 35
e 6 18
e 6 24
e 6 33
e 6 34
e 6 35
e 7 10
e 7 12
e 7 21
e 7 23
e 7 31
e 7 37
e 7 38
e 8 14
e 8 20
e 8 21
e 8 28
e 9 15
e 9 18
e 9 20
e 9 31
e 10 17
e 10 18
e 10 26
e 10 37
e 11 21
e 11 22
e 11 25
e 11 26
e 11 35
e 12 27
e 12 32
e 12 35
e 13 14
e 13 22
e 13 36
e 14 35
e 15 36
e 15 37
e 16 17
e 16 18
e 16 19
e 16 21
e 16 25
e 16 28
e 16 29
e 16 35
e 17 31
e 17 33
e 17 35
e 18 32
e 18 34
e 18 35
e 18 38
e 19 27
e 19 30
e 19 36
e 20 21
e 20 32
e 20 37
e 21 26
e 21 31
e 21 32
e 22 31
e 22 34
e 23 28
e 23 30
e 24 25
e 24 35
e 24 36
e 24 37
e 25 36
e 25 37
e 26 33
e 26 34
e 27 30
e 27 32
e 27 35
e 28 33
e 28 34
e 28 36
e 29 30
e 29 32
e 29 33
e 29 34
e 31 37
e 32 36
e 34 37
e 35 36
e 36 37